42154 37319 
42353 37100 
43118 35976 
42466 36972 
42621 36666 
42300 37191 
42388 37083 
42104 37456 
41994 37672 
43384 35117 
42869 36332 
43194 35498 
42759 36548 
42612 36844 
42139 37439 
41745 38028 
42035 37494 
43460 34639 
42510 36904 
42180 37261 
41481 38293 
41873 37928 
41064 38695 
41341 38572 
41410 38428 
41029 38919 
40459 39374 
41423 38330 
40123 39762 
40192 39618 
39904 39777 
40513 39281 
40269 39435 
40704 39155 
40821 38972 
40372 39406 
39783 39783 
40528 39230 
40561 39202 
39714 39838 
39560 39872 
41345 38434 
40741 38990 
39593 39844 
41096 38624 
41085 38664 
41129 38596 
41620 38086 
41060 38740 
41585 38103 
41551 38230 
41516 38247 
41668 38047 
38034 40254 
38067 40226 
41633 38064 
38318 40210 
38910 40133 
39111 40109 
39322 40089 
38591 40195 
38792 40171 
38982 40110 
39334 40020 
39391 39945 
39403 39876 
